files/math0462-2016/R6_iis.lp
Minimize
 obj: 1 VAR3 - 1 VAR2
Subject To
 c1: 1 VAR3 - 5 VAR1 - 8 VAR2 <= 0
 c2: 1 VAR1 + 1 VAR2 = 1
 c3: 1 VAR1 + 1 VAR2 = 2
Bounds
 0 <= VAR1 <= 1
 0 <= VAR2 <= 1
 0 <= VAR3 <= +inf
General
 VAR1
 VAR2
End
